generated by twinpy
1.0
-8.79 5.074908866 0.0
-2.93 -5.074908866 -9.3
-6.291894536 -10.897881012 7.929140211
Ti
96
Direct
-0.166666667 0.083333333 -0.041666667
0.166666667 -0.083333333 0.041666667
0.583333333 1.0 0.875
0.916666667 0.833333333 0.958333333
0.333333333 0.916666667 0.791666667
0.666666667 0.75 0.875
0.083333333 0.833333333 0.708333333
0.416666667 0.666666667 0.791666667
-0.166666667 0.75 0.625
0.166666667 0.583333333 0.708333333
0.583333333 0.666666667 0.541666667
0.916666667 0.5 0.625
0.333333333 0.583333333 0.458333333
0.666666667 0.416666667 0.541666667
0.083333333 0.5 0.375
0.416666667 0.333333333 0.458333333
0.083333333 1.0 0.875
0.416666667 0.833333333 0.958333333
-0.166666667 0.916666667 0.791666667
0.166666667 0.75 0.875
0.583333333 0.833333333 0.708333333
0.916666667 0.666666667 0.791666667
0.333333333 0.75 0.625
0.666666667 0.583333333 0.708333333
0.083333333 0.666666667 0.541666667
0.416666667 0.5 0.625
-0.166666667 0.583333333 0.458333333
0.166666667 0.416666667 0.541666667
0.583333333 0.5 0.375
0.916666667 0.333333333 0.458333333
0.333333333 0.416666667 0.291666667
0.666666667 0.25 0.375
-0.166666667 0.416666667 0.291666667
0.166666667 0.25 0.375
0.583333333 0.333333333 0.208333333
0.916666667 0.166666667 0.291666667
0.083333333 0.333333333 0.208333333
0.416666667 0.166666667 0.291666667
-0.166666667 0.25 0.125
0.166666667 0.083333333 0.208333333
0.333333333 0.25 0.125
0.666666667 0.083333333 0.208333333
0.083333333 0.166666667 0.041666667
0.416666667 -0.0 0.125
0.583333333 0.166666667 0.041666667
0.916666667 -0.0 0.125
0.333333333 0.083333333 -0.041666667
0.666666667 -0.083333333 0.041666667
-0.166666667 0.75 0.125
0.166666667 0.583333333 0.208333333
0.583333333 0.666666667 0.041666667
0.916666667 0.5 0.125
0.333333333 0.583333333 -0.041666667
0.666666667 0.416666667 0.041666667
0.083333333 0.5 0.875
0.416666667 0.333333333 0.958333333
-0.166666667 0.416666667 0.791666667
0.166666667 0.25 0.875
0.583333333 0.333333333 0.708333333
0.916666667 0.166666667 0.791666667
0.333333333 0.25 0.625
0.666666667 0.083333333 0.708333333
0.083333333 0.166666667 0.541666667
0.416666667 -0.0 0.625
0.083333333 0.666666667 0.041666667
0.416666667 0.5 0.125
-0.166666667 0.583333333 -0.041666667
0.166666667 0.416666667 0.041666667
0.583333333 0.5 0.875
0.916666667 0.333333333 0.958333333
0.333333333 0.416666667 0.791666667
0.666666667 0.25 0.875
0.083333333 0.333333333 0.708333333
0.416666667 0.166666667 0.791666667
-0.166666667 0.25 0.625
0.166666667 0.083333333 0.708333333
0.583333333 0.166666667 0.541666667
0.916666667 -0.0 0.625
0.333333333 0.083333333 0.458333333
0.666666667 -0.083333333 0.541666667
-0.166666667 0.083333333 0.458333333
0.166666667 -0.083333333 0.541666667
0.583333333 1.0 0.375
0.916666667 0.833333333 0.458333333
0.083333333 1.0 0.375
0.416666667 0.833333333 0.458333333
-0.166666667 0.916666667 0.291666667
0.166666667 0.75 0.375
0.333333333 0.916666667 0.291666667
0.666666667 0.75 0.375
0.083333333 0.833333333 0.208333333
0.416666667 0.666666667 0.291666667
0.583333333 0.833333333 0.208333333
0.916666667 0.666666667 0.291666667
0.333333333 0.75 0.125
0.666666667 0.583333333 0.208333333
