generated by twinpy
1.0
3.025832062 -1.465 -0.191664123
0.055328667 2.537454433 -0.110657333
0.101392284 0.0 4.447215433
Ti
2
Direct
0.333333333 -0.333333333 0.25
-0.333333333 0.333333333 -0.25
